NAME : 10_3_3_2_(18).dat
COMMENT : Henke, Speranza, Wäscher, 2015
TYPE : MCVRP
DIMENSION : 11
EDGE_WEIGHT_TYPE : DISTANCE_MATRIX
CAPACITY : 1000
VEHICLES : 3
PRODUCT TYPES : 3
COMPARTMENTS : 3
NODE_COORD_SECTION
1 50 50
2 54.82 15.68
3 35.03 67.34
4 89.9 62.14
5 0.49 54.96
6 36.46 92.86
7 62.56 43.69
8 0.54 63.5
9 7.51 17.1
10 10.88 68.42
11 42.04 85.33
DEMAND_SECTION
1 0 0 0
2 4 0 106
3 160 221 0
4 147 0 22
5 127 0 31
6 77 111 0
7 129 0 31
8 90 0 45
9 125 0 12
10 0 69 39
11 0 115 58
DEPOT_SECTION
1
EOF